NAME : n150w120.005.907.tour
COMMENT : Length = 907
COMMENT : Found by LKH [Keld Helsgaun] Tue Nov  7 19:48:06 2017
TYPE : TOUR
DIMENSION : 151
TOUR_SECTION
1
107
32
65
12
120
118
147
133
104
136
5
16
62
88
63
8
54
121
35
84
116
48
66
19
101
30
143
74
150
109
28
73
145
6
106
24
29
75
11
90
27
102
25
34
13
99
140
3
56
112
82
39
59
44
77
98
76
135
87
26
31
61
18
68
113
97
81
60
40
46
37
21
20
71
125
41
132
69
91
141
138
100
92
17
53
146
72
126
23
45
55
64
67
57
83
117
131
9
130
103
122
96
22
7
149
2
10
42
129
128
134
15
47
50
14
86
110
51
58
49
105
79
137
70
85
123
78
124
80
94
139
93
95
52
127
115
43
111
108
38
89
144
119
36
114
4
148
151
33
142
-1
EOF
